\ This file has been generated by DOcplex
\ ENCODING=ISO-8859-1
\Problem name: recycling problem

Maximize
 obj: [ 7.412038351844 a0_u0*a1_u0_x0 + 8.576822384090 a0_u0*a1_u1_x0
      + 4.686664557117 a0_u0*a1_u2_x0 + 3.176587865076 a0_u0*a1_u0_x1
      + 1.625974379122 a0_u0*a1_u1_x1 + 0.110252823168 a0_u0*a1_u2_x1
      + 11.557500103964 a0_u1*a1_u0_x0 + 11.859602084901 a0_u1*a1_u1_x0
      + 7.394336738859 a0_u1*a1_u2_x0 + 4.953214330270 a0_u1*a1_u0_x1
      + 2.142257564535 a0_u1*a1_u1_x1 + 0.525491252853 a0_u1*a1_u2_x1
      + 8.640494563054 a0_u2*a1_u0_x0 + 9.189434793662 a0_u2*a1_u1_x0
      + 11.888728280735 a0_u2*a1_u2_x0 + 3.703069098452 a0_u2*a1_u0_x1
      + 1.056505682872 a0_u2*a1_u1_x1 + 1.671956929839 a0_u2*a1_u2_x1 ]/2
Subject To
 c1: 3.809906538191 aj_u0_x0 + 6.977754900525 aj_u1_x0 + 5.756326131331 aj_u2_x0
     + 2.203241366680 aj_u3_x0 + 4.598033371698 aj_u4_x0
     + 12.861228041709 aj_u5_x0 + 1.175203824401 aj_u6_x0
     + 8.741128225367 aj_u7_x0 + 8.118411159344 aj_u8_x0 - 3.809906538191 a0_u0
     - 2.203241366680 a0_u1 - 1.175203824401 a0_u2 >= 0
 c2: 3.809906538191 aj_u0_x0 + 6.977754900525 aj_u1_x0 + 5.756326131331 aj_u2_x0
     + 2.203241366680 aj_u3_x0 + 4.598033371698 aj_u4_x0
     + 12.861228041709 aj_u5_x0 + 1.175203824401 aj_u6_x0
     + 8.741128225367 aj_u7_x0 + 8.118411159344 aj_u8_x0 - 6.977754900525 a0_u0
     - 4.598033371698 a0_u1 - 8.741128225367 a0_u2 >= 0
 c3: 3.809906538191 aj_u0_x0 + 6.977754900525 aj_u1_x0 + 5.756326131331 aj_u2_x0
     + 2.203241366680 aj_u3_x0 + 4.598033371698 aj_u4_x0
     + 12.861228041709 aj_u5_x0 + 1.175203824401 aj_u6_x0
     + 8.741128225367 aj_u7_x0 + 8.118411159344 aj_u8_x0 - 5.756326131331 a0_u0
     - 12.861228041709 a0_u1 - 8.118411159344 a0_u2 >= 0
 c4: 2.809906538191 aj_u0_x1 + 12.372673392169 aj_u1_x1
     + 15.829465275762 aj_u2_x1 + 4.203241366680 aj_u3_x1
     + 18.873386999956 aj_u4_x1 + 13.365753942477 aj_u5_x1
     + 3.175203824401 aj_u6_x1 + 11.826100796442 aj_u7_x1
     + 9.892437522486 aj_u8_x1 - 2.809906538191 a0_u0 - 4.203241366680 a0_u1
     - 3.175203824401 a0_u2 >= 0
 c5: 2.809906538191 aj_u0_x1 + 12.372673392169 aj_u1_x1
     + 15.829465275762 aj_u2_x1 + 4.203241366680 aj_u3_x1
     + 18.873386999956 aj_u4_x1 + 13.365753942477 aj_u5_x1
     + 3.175203824401 aj_u6_x1 + 11.826100796442 aj_u7_x1
     + 9.892437522486 aj_u8_x1 - 12.372673392169 a0_u0 - 18.873386999956 a0_u1
     - 11.826100796442 a0_u2 >= 0
 c6: 2.809906538191 aj_u0_x1 + 12.372673392169 aj_u1_x1
     + 15.829465275762 aj_u2_x1 + 4.203241366680 aj_u3_x1
     + 18.873386999956 aj_u4_x1 + 13.365753942477 aj_u5_x1
     + 3.175203824401 aj_u6_x1 + 11.826100796442 aj_u7_x1
     + 9.892437522486 aj_u8_x1 - 15.829465275762 a0_u0 - 13.365753942477 a0_u1
     - 9.892437522486 a0_u2 >= 0
 c7: a0_u0 + a0_u1 + a0_u2 = 1
 c8: a1_u0_x0 + a1_u1_x0 + a1_u2_x0 = 1
 c9: aj_u0_x0 + aj_u1_x0 + aj_u2_x0 + aj_u3_x0 + aj_u4_x0 + aj_u5_x0 + aj_u6_x0
     + aj_u7_x0 + aj_u8_x0 = 1
 c10: a1_u0_x1 + a1_u1_x1 + a1_u2_x1 = 1
 c11: aj_u0_x1 + aj_u1_x1 + aj_u2_x1 + aj_u3_x1 + aj_u4_x1 + aj_u5_x1 + aj_u6_x1
      + aj_u7_x1 + aj_u8_x1 = 1
 c12: a1_u0_x2 + a1_u1_x2 + a1_u2_x2 = 1
 c13: aj_u0_x2 + aj_u1_x2 + aj_u2_x2 + aj_u3_x2 + aj_u4_x2 + aj_u5_x2 + aj_u6_x2
      + aj_u7_x2 + aj_u8_x2 = 1
 c14: a1_u0_x3 + a1_u1_x3 + a1_u2_x3 = 1
 c15: aj_u0_x3 + aj_u1_x3 + aj_u2_x3 + aj_u3_x3 + aj_u4_x3 + aj_u5_x3 + aj_u6_x3
      + aj_u7_x3 + aj_u8_x3 = 1
 c16: aj_u0_x0 + aj_u1_x0 + aj_u2_x0 - a0_u0 = 0
 c17: aj_u3_x0 + aj_u4_x0 + aj_u5_x0 - a0_u1 = 0
 c18: aj_u6_x0 + aj_u7_x0 + aj_u8_x0 - a0_u2 = 0
 c19: aj_u0_x1 + aj_u1_x1 + aj_u2_x1 - a0_u0 = 0
 c20: aj_u3_x1 + aj_u4_x1 + aj_u5_x1 - a0_u1 = 0
 c21: aj_u6_x1 + aj_u7_x1 + aj_u8_x1 - a0_u2 = 0
 c22: aj_u0_x2 + aj_u1_x2 + aj_u2_x2 - a0_u0 = 0
 c23: aj_u3_x2 + aj_u4_x2 + aj_u5_x2 - a0_u1 = 0
 c24: aj_u6_x2 + aj_u7_x2 + aj_u8_x2 - a0_u2 = 0
 c25: aj_u0_x3 + aj_u1_x3 + aj_u2_x3 - a0_u0 = 0
 c26: aj_u3_x3 + aj_u4_x3 + aj_u5_x3 - a0_u1 = 0
 c27: aj_u6_x3 + aj_u7_x3 + aj_u8_x3 - a0_u2 = 0
 c28: aj_u0_x0 + aj_u3_x0 + aj_u6_x0 - a1_u0_x0 = 0
 c29: aj_u1_x0 + aj_u4_x0 + aj_u7_x0 - a1_u1_x0 = 0
 c30: aj_u2_x0 + aj_u5_x0 + aj_u8_x0 - a1_u2_x0 = 0
 c31: aj_u0_x1 + aj_u3_x1 + aj_u6_x1 - a1_u0_x1 = 0
 c32: aj_u1_x1 + aj_u4_x1 + aj_u7_x1 - a1_u1_x1 = 0
 c33: aj_u2_x1 + aj_u5_x1 + aj_u8_x1 - a1_u2_x1 = 0
 c34: aj_u0_x2 + aj_u3_x2 + aj_u6_x2 - a1_u0_x2 = 0
 c35: aj_u1_x2 + aj_u4_x2 + aj_u7_x2 - a1_u1_x2 = 0
 c36: aj_u2_x2 + aj_u5_x2 + aj_u8_x2 - a1_u2_x2 = 0
 c37: aj_u0_x3 + aj_u3_x3 + aj_u6_x3 - a1_u0_x3 = 0
 c38: aj_u1_x3 + aj_u4_x3 + aj_u7_x3 - a1_u1_x3 = 0
 c39: aj_u2_x3 + aj_u5_x3 + aj_u8_x3 - a1_u2_x3 = 0

Bounds
       a0_u0 <= 1
       a0_u1 <= 1
       a0_u2 <= 1
 0 <= a1_u0_x0 <= 1
 0 <= a1_u1_x0 <= 1
 0 <= a1_u2_x0 <= 1
       aj_u0_x0 <= 1
       aj_u1_x0 <= 1
       aj_u2_x0 <= 1
       aj_u3_x0 <= 1
       aj_u4_x0 <= 1
       aj_u5_x0 <= 1
       aj_u6_x0 <= 1
       aj_u7_x0 <= 1
       aj_u8_x0 <= 1
 0 <= a1_u0_x1 <= 1
 0 <= a1_u1_x1 <= 1
 0 <= a1_u2_x1 <= 1
       aj_u0_x1 <= 1
       aj_u1_x1 <= 1
       aj_u2_x1 <= 1
       aj_u3_x1 <= 1
       aj_u4_x1 <= 1
       aj_u5_x1 <= 1
       aj_u6_x1 <= 1
       aj_u7_x1 <= 1
       aj_u8_x1 <= 1
 0 <= a1_u0_x2 <= 1
 0 <= a1_u1_x2 <= 1
 0 <= a1_u2_x2 <= 1
       aj_u0_x2 <= 1
       aj_u1_x2 <= 1
       aj_u2_x2 <= 1
       aj_u3_x2 <= 1
       aj_u4_x2 <= 1
       aj_u5_x2 <= 1
       aj_u6_x2 <= 1
       aj_u7_x2 <= 1
       aj_u8_x2 <= 1
 0 <= a1_u0_x3 <= 1
 0 <= a1_u1_x3 <= 1
 0 <= a1_u2_x3 <= 1
       aj_u0_x3 <= 1
       aj_u1_x3 <= 1
       aj_u2_x3 <= 1
       aj_u3_x3 <= 1
       aj_u4_x3 <= 1
       aj_u5_x3 <= 1
       aj_u6_x3 <= 1
       aj_u7_x3 <= 1
       aj_u8_x3 <= 1

Binaries
 a1_u0_x0 a1_u1_x0 a1_u2_x0 a1_u0_x1 a1_u1_x1 a1_u2_x1 a1_u0_x2 a1_u1_x2
 a1_u2_x2 a1_u0_x3 a1_u1_x3 a1_u2_x3
End
